\ Model Cutting Stock Problem with Maximum Waste Constraint
\ LP format - for model browsing. Use MPS format to capture full model detail.
Minimize
  x[0] + x[1] + x[2] + x[3] + x[4] + x[5] + x[6] + x[7]
Subject To
 R0: 269.37 x[0] + 243.26 x[1] + 106.68 x[2] + 494.09 x[3] + 306.67 x[4]
   + 101.17 x[5] + 151.15 x[6] + 341.32 x[7] >= 8
 R1: 269.37 x[0] + 243.26 x[1] + 106.68 x[2] + 494.09 x[3] + 306.67 x[4]
   + 101.17 x[5] + 151.15 x[6] + 341.32 x[7] >= 57
 R2: 269.37 x[0] + 243.26 x[1] + 106.68 x[2] + 494.09 x[3] + 306.67 x[4]
   + 101.17 x[5] + 151.15 x[6] + 341.32 x[7] >= 24
 R3: 269.37 x[0] + 243.26 x[1] + 106.68 x[2] + 494.09 x[3] + 306.67 x[4]
   + 101.17 x[5] + 151.15 x[6] + 341.32 x[7] >= 65
 R4: 269.37 x[0] + 243.26 x[1] + 106.68 x[2] + 494.09 x[3] + 306.67 x[4]
   + 101.17 x[5] + 151.15 x[6] + 341.32 x[7] >= 1
 R5: 269.37 x[0] + 243.26 x[1] + 106.68 x[2] + 494.09 x[3] + 306.67 x[4]
   + 101.17 x[5] + 151.15 x[6] + 341.32 x[7] >= 11
 R6: 269.37 x[0] + 243.26 x[1] + 106.68 x[2] + 494.09 x[3] + 306.67 x[4]
   + 101.17 x[5] + 151.15 x[6] + 341.32 x[7] >= 23
 R7: 269.37 x[0] + 243.26 x[1] + 106.68 x[2] + 494.09 x[3] + 306.67 x[4]
   + 101.17 x[5] + 151.15 x[6] + 341.32 x[7] >= 26
 R8: 269.37 x[0] + 243.26 x[1] + 106.68 x[2] + 494.09 x[3] + 306.67 x[4]
   + 101.17 x[5] + 151.15 x[6] + 341.32 x[7] <= 1320.4
 R9: - 269.37 x[0] - 243.26 x[1] - 106.68 x[2] - 494.09 x[3] - 306.67 x[4]
   - 101.17 x[5] - 151.15 x[6] - 341.32 x[7] <= -1294.07
Bounds
End
